c THIS FORMULA IS GENERATED BY CNF
c 
c atomics
c X_PI <= 70.62_1_n:1
c X_PI <= 54.92_1_p:2
c X_PI <= 80.61_2_p:3
c X_PT <= 21.06_1_n:4
c X_PT <= 17.44_2_n:5
c X_LA <= 39.63_1_n:6
c X_PT <= 12.36_2_n:7
c X_PT <= 8.31_2_s:8
c X_PT <= 28.68_2_n:9
c C_2_9:10
c X_PI <= 42.09_1_p:11
c X_PT <= 12.36_2_s:12
c X_LA <= 32.59_1_s:13
c X_PT <= 12.36_1_n:14
c X_PT <= 17.44_1_s:15
c X_PT <= 17.44_1_p:16
c X_PT <= 21.06_1_p:17
c X_PI <= 48.12_1_n:18
c C_1_7:19
c X_PT <= 8.31_1_n:20
c X_LA <= 32.59_1_n:21
c C_2_10:22
c X_PT <= 21.06_2_s:23
c C_1_8:24
c X_PT <= 28.68_1_n:25
c C_2_7:26
c X_PT <= 8.31_2_n:27
c X_PI <= 42.09_2_n:28
c X_PT <= 17.44_1_n:29
c X_PT <= 28.68_2_s:30
c C_1_4:31
c X_PT <= 12.36_2_p:32
c X_PI <= 63.52_1_p:33
c X_PI <= 70.62_1_s:34
c X_PI <= 80.61_1_n:35
c X_PT <= 21.06_2_n:36
c X_PI <= 42.09_2_p:37
c X_LA <= 46.33_1_n:38
c C_1_1:39
c C_1_9:40
c C_1_5:41
c X_PI <= 48.12_1_s:42
c X_PI <= 42.09_2_s:43
c X_PI <= 63.52_1_n:44
c X_PI <= 54.92_2_p:45
c X_PT <= 8.31_1_p:46
c C_2_4:47
c X_PT <= 8.31_1_s:48
c X_PT <= 21.06_1_s:49
c X_LA <= 46.33_1_s:50
c C_2_6:51
c X_LA <= 39.63_2_p:52
c X_LA <= 32.59_2_n:53
c X_PT <= 12.36_1_p:54
c X_LA <= 46.33_2_p:55
c X_LA <= 39.63_1_s:56
c C_2_8:57
c X_PI <= 54.92_1_n:58
c C_1_6:59
c X_PT <= 12.36_1_s:60
c X_PI <= 63.52_2_s:61
c X_LA <= 32.59_2_s:62
c X_PI <= 63.52_2_n:63
c X_PI <= 70.62_2_n:64
c X_PI <= 80.61_1_p:65
c X_PT <= 14.55_1_p:66
c C_1_11:67
c X_LA <= 52.68_2_s:68
c X_LA <= 39.63_2_s:69
c X_PI <= 48.12_2_p:70
c X_PT <= 28.68_1_p:71
c X_LA <= 52.68_2_n:72
c C_2_5:73
c C_1_2:74
c X_PI <= 42.09_1_n:75
c C_1_10:76
c X_PT <= 28.68_2_p:77
c C_2_1:78
c X_LA <= 32.59_2_p:79
c X_PI <= 63.52_1_s:80
c X_PT <= 14.55_1_s:81
c X_LA <= 46.33_1_p:82
c X_PI <= 48.12_2_n:83
c X_PT <= 21.06_2_p:84
c X_PT <= 17.44_2_s:85
c X_PI <= 70.62_2_p:86
c X_PI <= 48.12_1_p:87
c C_2_11:88
c X_PI <= 80.61_2_s:89
c X_PI <= 54.92_1_s:90
c X_PT <= 17.44_2_p:91
c X_PI <= 42.09_1_s:92
c X_PT <= 8.31_2_p:93
c X_PI <= 70.62_1_p:94
c X_LA <= 52.68_1_p:95
c X_PT <= 14.55_2_s:96
c X_PT <= 14.55_2_p:97
c X_LA <= 52.68_1_n:98
c X_PT <= 28.68_1_s:99
c X_PI <= 80.61_2_n:100
c X_PT <= 14.55_1_n:101
c C_2_2:102
c X_PT <= 14.55_2_n:103
c X_PI <= 54.92_2_s:104
c X_PI <= 70.62_2_s:105
c X_PI <= 63.52_2_p:106
c X_PI <= 48.12_2_s:107
c X_PI <= 54.92_2_n:108
c X_LA <= 32.59_1_p:109
c X_LA <= 46.33_2_n:110
c X_LA <= 52.68_1_s:111
c C_2_3:112
c X_LA <= 52.68_2_p:113
c X_LA <= 39.63_2_n:114
c X_LA <= 46.33_2_s:115
c X_LA <= 39.63_1_p:116
c C_1_3:117
c X_PI <= 80.61_1_s:118
c end atomics
p cnf 118 1252
11 -11 -11 0
11 -11 -75 0
11 -11 92 0
11 75 -11 0
11 75 -75 0
11 75 92 0
11 -92 -11 0
11 -92 -75 0
11 -92 92 0
-75 -11 -11 0
-75 -11 -75 0
-75 -11 92 0
-75 75 -11 0
-75 75 -75 0
-75 75 92 0
-75 -92 -11 0
-75 -92 -75 0
-75 -92 92 0
-92 -11 -11 0
-92 -11 -75 0
-92 -11 92 0
-92 75 -11 0
-92 75 -75 0
-92 75 92 0
-92 -92 -11 0
-92 -92 -75 0
-92 -92 92 0
87 -87 -87 0
87 -87 -18 0
87 -87 42 0
87 18 -87 0
87 18 -18 0
87 18 42 0
87 -42 -87 0
87 -42 -18 0
87 -42 42 0
-18 -87 -87 0
-18 -87 -18 0
-18 -87 42 0
-18 18 -87 0
-18 18 -18 0
-18 18 42 0
-18 -42 -87 0
-18 -42 -18 0
-18 -42 42 0
-42 -87 -87 0
-42 -87 -18 0
-42 -87 42 0
-42 18 -87 0
-42 18 -18 0
-42 18 42 0
-42 -42 -87 0
-42 -42 -18 0
-42 -42 42 0
2 -2 -2 0
2 -2 -58 0
2 -2 90 0
2 58 -2 0
2 58 -58 0
2 58 90 0
2 -90 -2 0
2 -90 -58 0
2 -90 90 0
-58 -2 -2 0
-58 -2 -58 0
-58 -2 90 0
-58 58 -2 0
-58 58 -58 0
-58 58 90 0
-58 -90 -2 0
-58 -90 -58 0
-58 -90 90 0
-90 -2 -2 0
-90 -2 -58 0
-90 -2 90 0
-90 58 -2 0
-90 58 -58 0
-90 58 90 0
-90 -90 -2 0
-90 -90 -58 0
-90 -90 90 0
33 -33 -33 0
33 -33 -44 0
33 -33 80 0
33 44 -33 0
33 44 -44 0
33 44 80 0
33 -80 -33 0
33 -80 -44 0
33 -80 80 0
-44 -33 -33 0
-44 -33 -44 0
-44 -33 80 0
-44 44 -33 0
-44 44 -44 0
-44 44 80 0
-44 -80 -33 0
-44 -80 -44 0
-44 -80 80 0
-80 -33 -33 0
-80 -33 -44 0
-80 -33 80 0
-80 44 -33 0
-80 44 -44 0
-80 44 80 0
-80 -80 -33 0
-80 -80 -44 0
-80 -80 80 0
94 -94 -94 0
94 -94 -1 0
94 -94 34 0
94 1 -94 0
94 1 -1 0
94 1 34 0
94 -34 -94 0
94 -34 -1 0
94 -34 34 0
-1 -94 -94 0
-1 -94 -1 0
-1 -94 34 0
-1 1 -94 0
-1 1 -1 0
-1 1 34 0
-1 -34 -94 0
-1 -34 -1 0
-1 -34 34 0
-34 -94 -94 0
-34 -94 -1 0
-34 -94 34 0
-34 1 -94 0
-34 1 -1 0
-34 1 34 0
-34 -34 -94 0
-34 -34 -1 0
-34 -34 34 0
65 -65 -65 0
65 -65 -35 0
65 -65 118 0
65 35 -65 0
65 35 -35 0
65 35 118 0
65 -118 -65 0
65 -118 -35 0
65 -118 118 0
-35 -65 -65 0
-35 -65 -35 0
-35 -65 118 0
-35 35 -65 0
-35 35 -35 0
-35 35 118 0
-35 -118 -65 0
-35 -118 -35 0
-35 -118 118 0
-118 -65 -65 0
-118 -65 -35 0
-118 -65 118 0
-118 35 -65 0
-118 35 -35 0
-118 35 118 0
-118 -118 -65 0
-118 -118 -35 0
-118 -118 118 0
46 -46 -46 0
46 -46 -20 0
46 -46 48 0
46 20 -46 0
46 20 -20 0
46 20 48 0
46 -48 -46 0
46 -48 -20 0
46 -48 48 0
-20 -46 -46 0
-20 -46 -20 0
-20 -46 48 0
-20 20 -46 0
-20 20 -20 0
-20 20 48 0
-20 -48 -46 0
-20 -48 -20 0
-20 -48 48 0
-48 -46 -46 0
-48 -46 -20 0
-48 -46 48 0
-48 20 -46 0
-48 20 -20 0
-48 20 48 0
-48 -48 -46 0
-48 -48 -20 0
-48 -48 48 0
54 -54 -54 0
54 -54 -14 0
54 -54 60 0
54 14 -54 0
54 14 -14 0
54 14 60 0
54 -60 -54 0
54 -60 -14 0
54 -60 60 0
-14 -54 -54 0
-14 -54 -14 0
-14 -54 60 0
-14 14 -54 0
-14 14 -14 0
-14 14 60 0
-14 -60 -54 0
-14 -60 -14 0
-14 -60 60 0
-60 -54 -54 0
-60 -54 -14 0
-60 -54 60 0
-60 14 -54 0
-60 14 -14 0
-60 14 60 0
-60 -60 -54 0
-60 -60 -14 0
-60 -60 60 0
66 -66 -66 0
66 -66 -101 0
66 -66 81 0
66 101 -66 0
66 101 -101 0
66 101 81 0
66 -81 -66 0
66 -81 -101 0
66 -81 81 0
-101 -66 -66 0
-101 -66 -101 0
-101 -66 81 0
-101 101 -66 0
-101 101 -101 0
-101 101 81 0
-101 -81 -66 0
-101 -81 -101 0
-101 -81 81 0
-81 -66 -66 0
-81 -66 -101 0
-81 -66 81 0
-81 101 -66 0
-81 101 -101 0
-81 101 81 0
-81 -81 -66 0
-81 -81 -101 0
-81 -81 81 0
16 -16 -16 0
16 -16 -29 0
16 -16 15 0
16 29 -16 0
16 29 -29 0
16 29 15 0
16 -15 -16 0
16 -15 -29 0
16 -15 15 0
-29 -16 -16 0
-29 -16 -29 0
-29 -16 15 0
-29 29 -16 0
-29 29 -29 0
-29 29 15 0
-29 -15 -16 0
-29 -15 -29 0
-29 -15 15 0
-15 -16 -16 0
-15 -16 -29 0
-15 -16 15 0
-15 29 -16 0
-15 29 -29 0
-15 29 15 0
-15 -15 -16 0
-15 -15 -29 0
-15 -15 15 0
17 -17 -17 0
17 -17 -4 0
17 -17 49 0
17 4 -17 0
17 4 -4 0
17 4 49 0
17 -49 -17 0
17 -49 -4 0
17 -49 49 0
-4 -17 -17 0
-4 -17 -4 0
-4 -17 49 0
-4 4 -17 0
-4 4 -4 0
-4 4 49 0
-4 -49 -17 0
-4 -49 -4 0
-4 -49 49 0
-49 -17 -17 0
-49 -17 -4 0
-49 -17 49 0
-49 4 -17 0
-49 4 -4 0
-49 4 49 0
-49 -49 -17 0
-49 -49 -4 0
-49 -49 49 0
71 -71 -71 0
71 -71 -25 0
71 -71 99 0
71 25 -71 0
71 25 -25 0
71 25 99 0
71 -99 -71 0
71 -99 -25 0
71 -99 99 0
-25 -71 -71 0
-25 -71 -25 0
-25 -71 99 0
-25 25 -71 0
-25 25 -25 0
-25 25 99 0
-25 -99 -71 0
-25 -99 -25 0
-25 -99 99 0
-99 -71 -71 0
-99 -71 -25 0
-99 -71 99 0
-99 25 -71 0
-99 25 -25 0
-99 25 99 0
-99 -99 -71 0
-99 -99 -25 0
-99 -99 99 0
109 -109 -109 0
109 -109 -21 0
109 -109 13 0
109 21 -109 0
109 21 -21 0
109 21 13 0
109 -13 -109 0
109 -13 -21 0
109 -13 13 0
-21 -109 -109 0
-21 -109 -21 0
-21 -109 13 0
-21 21 -109 0
-21 21 -21 0
-21 21 13 0
-21 -13 -109 0
-21 -13 -21 0
-21 -13 13 0
-13 -109 -109 0
-13 -109 -21 0
-13 -109 13 0
-13 21 -109 0
-13 21 -21 0
-13 21 13 0
-13 -13 -109 0
-13 -13 -21 0
-13 -13 13 0
116 -116 -116 0
116 -116 -6 0
116 -116 56 0
116 6 -116 0
116 6 -6 0
116 6 56 0
116 -56 -116 0
116 -56 -6 0
116 -56 56 0
-6 -116 -116 0
-6 -116 -6 0
-6 -116 56 0
-6 6 -116 0
-6 6 -6 0
-6 6 56 0
-6 -56 -116 0
-6 -56 -6 0
-6 -56 56 0
-56 -116 -116 0
-56 -116 -6 0
-56 -116 56 0
-56 6 -116 0
-56 6 -6 0
-56 6 56 0
-56 -56 -116 0
-56 -56 -6 0
-56 -56 56 0
82 -82 -82 0
82 -82 -38 0
82 -82 50 0
82 38 -82 0
82 38 -38 0
82 38 50 0
82 -50 -82 0
82 -50 -38 0
82 -50 50 0
-38 -82 -82 0
-38 -82 -38 0
-38 -82 50 0
-38 38 -82 0
-38 38 -38 0
-38 38 50 0
-38 -50 -82 0
-38 -50 -38 0
-38 -50 50 0
-50 -82 -82 0
-50 -82 -38 0
-50 -82 50 0
-50 38 -82 0
-50 38 -38 0
-50 38 50 0
-50 -50 -82 0
-50 -50 -38 0
-50 -50 50 0
95 -95 -95 0
95 -95 -98 0
95 -95 111 0
95 98 -95 0
95 98 -98 0
95 98 111 0
95 -111 -95 0
95 -111 -98 0
95 -111 111 0
-98 -95 -95 0
-98 -95 -98 0
-98 -95 111 0
-98 98 -95 0
-98 98 -98 0
-98 98 111 0
-98 -111 -95 0
-98 -111 -98 0
-98 -111 111 0
-111 -95 -95 0
-111 -95 -98 0
-111 -95 111 0
-111 98 -95 0
-111 98 -98 0
-111 98 111 0
-111 -111 -95 0
-111 -111 -98 0
-111 -111 111 0
37 -37 -37 0
37 -37 -28 0
37 -37 43 0
37 28 -37 0
37 28 -28 0
37 28 43 0
37 -43 -37 0
37 -43 -28 0
37 -43 43 0
-28 -37 -37 0
-28 -37 -28 0
-28 -37 43 0
-28 28 -37 0
-28 28 -28 0
-28 28 43 0
-28 -43 -37 0
-28 -43 -28 0
-28 -43 43 0
-43 -37 -37 0
-43 -37 -28 0
-43 -37 43 0
-43 28 -37 0
-43 28 -28 0
-43 28 43 0
-43 -43 -37 0
-43 -43 -28 0
-43 -43 43 0
70 -70 -70 0
70 -70 -83 0
70 -70 107 0
70 83 -70 0
70 83 -83 0
70 83 107 0
70 -107 -70 0
70 -107 -83 0
70 -107 107 0
-83 -70 -70 0
-83 -70 -83 0
-83 -70 107 0
-83 83 -70 0
-83 83 -83 0
-83 83 107 0
-83 -107 -70 0
-83 -107 -83 0
-83 -107 107 0
-107 -70 -70 0
-107 -70 -83 0
-107 -70 107 0
-107 83 -70 0
-107 83 -83 0
-107 83 107 0
-107 -107 -70 0
-107 -107 -83 0
-107 -107 107 0
45 -45 -45 0
45 -45 -108 0
45 -45 104 0
45 108 -45 0
45 108 -108 0
45 108 104 0
45 -104 -45 0
45 -104 -108 0
45 -104 104 0
-108 -45 -45 0
-108 -45 -108 0
-108 -45 104 0
-108 108 -45 0
-108 108 -108 0
-108 108 104 0
-108 -104 -45 0
-108 -104 -108 0
-108 -104 104 0
-104 -45 -45 0
-104 -45 -108 0
-104 -45 104 0
-104 108 -45 0
-104 108 -108 0
-104 108 104 0
-104 -104 -45 0
-104 -104 -108 0
-104 -104 104 0
106 -106 -106 0
106 -106 -63 0
106 -106 61 0
106 63 -106 0
106 63 -63 0
106 63 61 0
106 -61 -106 0
106 -61 -63 0
106 -61 61 0
-63 -106 -106 0
-63 -106 -63 0
-63 -106 61 0
-63 63 -106 0
-63 63 -63 0
-63 63 61 0
-63 -61 -106 0
-63 -61 -63 0
-63 -61 61 0
-61 -106 -106 0
-61 -106 -63 0
-61 -106 61 0
-61 63 -106 0
-61 63 -63 0
-61 63 61 0
-61 -61 -106 0
-61 -61 -63 0
-61 -61 61 0
86 -86 -86 0
86 -86 -64 0
86 -86 105 0
86 64 -86 0
86 64 -64 0
86 64 105 0
86 -105 -86 0
86 -105 -64 0
86 -105 105 0
-64 -86 -86 0
-64 -86 -64 0
-64 -86 105 0
-64 64 -86 0
-64 64 -64 0
-64 64 105 0
-64 -105 -86 0
-64 -105 -64 0
-64 -105 105 0
-105 -86 -86 0
-105 -86 -64 0
-105 -86 105 0
-105 64 -86 0
-105 64 -64 0
-105 64 105 0
-105 -105 -86 0
-105 -105 -64 0
-105 -105 105 0
3 -3 -3 0
3 -3 -100 0
3 -3 89 0
3 100 -3 0
3 100 -100 0
3 100 89 0
3 -89 -3 0
3 -89 -100 0
3 -89 89 0
-100 -3 -3 0
-100 -3 -100 0
-100 -3 89 0
-100 100 -3 0
-100 100 -100 0
-100 100 89 0
-100 -89 -3 0
-100 -89 -100 0
-100 -89 89 0
-89 -3 -3 0
-89 -3 -100 0
-89 -3 89 0
-89 100 -3 0
-89 100 -100 0
-89 100 89 0
-89 -89 -3 0
-89 -89 -100 0
-89 -89 89 0
93 -93 -93 0
93 -93 -27 0
93 -93 8 0
93 27 -93 0
93 27 -27 0
93 27 8 0
93 -8 -93 0
93 -8 -27 0
93 -8 8 0
-27 -93 -93 0
-27 -93 -27 0
-27 -93 8 0
-27 27 -93 0
-27 27 -27 0
-27 27 8 0
-27 -8 -93 0
-27 -8 -27 0
-27 -8 8 0
-8 -93 -93 0
-8 -93 -27 0
-8 -93 8 0
-8 27 -93 0
-8 27 -27 0
-8 27 8 0
-8 -8 -93 0
-8 -8 -27 0
-8 -8 8 0
32 -32 -32 0
32 -32 -7 0
32 -32 12 0
32 7 -32 0
32 7 -7 0
32 7 12 0
32 -12 -32 0
32 -12 -7 0
32 -12 12 0
-7 -32 -32 0
-7 -32 -7 0
-7 -32 12 0
-7 7 -32 0
-7 7 -7 0
-7 7 12 0
-7 -12 -32 0
-7 -12 -7 0
-7 -12 12 0
-12 -32 -32 0
-12 -32 -7 0
-12 -32 12 0
-12 7 -32 0
-12 7 -7 0
-12 7 12 0
-12 -12 -32 0
-12 -12 -7 0
-12 -12 12 0
97 -97 -97 0
97 -97 -103 0
97 -97 96 0
97 103 -97 0
97 103 -103 0
97 103 96 0
97 -96 -97 0
97 -96 -103 0
97 -96 96 0
-103 -97 -97 0
-103 -97 -103 0
-103 -97 96 0
-103 103 -97 0
-103 103 -103 0
-103 103 96 0
-103 -96 -97 0
-103 -96 -103 0
-103 -96 96 0
-96 -97 -97 0
-96 -97 -103 0
-96 -97 96 0
-96 103 -97 0
-96 103 -103 0
-96 103 96 0
-96 -96 -97 0
-96 -96 -103 0
-96 -96 96 0
91 -91 -91 0
91 -91 -5 0
91 -91 85 0
91 5 -91 0
91 5 -5 0
91 5 85 0
91 -85 -91 0
91 -85 -5 0
91 -85 85 0
-5 -91 -91 0
-5 -91 -5 0
-5 -91 85 0
-5 5 -91 0
-5 5 -5 0
-5 5 85 0
-5 -85 -91 0
-5 -85 -5 0
-5 -85 85 0
-85 -91 -91 0
-85 -91 -5 0
-85 -91 85 0
-85 5 -91 0
-85 5 -5 0
-85 5 85 0
-85 -85 -91 0
-85 -85 -5 0
-85 -85 85 0
84 -84 -84 0
84 -84 -36 0
84 -84 23 0
84 36 -84 0
84 36 -36 0
84 36 23 0
84 -23 -84 0
84 -23 -36 0
84 -23 23 0
-36 -84 -84 0
-36 -84 -36 0
-36 -84 23 0
-36 36 -84 0
-36 36 -36 0
-36 36 23 0
-36 -23 -84 0
-36 -23 -36 0
-36 -23 23 0
-23 -84 -84 0
-23 -84 -36 0
-23 -84 23 0
-23 36 -84 0
-23 36 -36 0
-23 36 23 0
-23 -23 -84 0
-23 -23 -36 0
-23 -23 23 0
77 -77 -77 0
77 -77 -9 0
77 -77 30 0
77 9 -77 0
77 9 -9 0
77 9 30 0
77 -30 -77 0
77 -30 -9 0
77 -30 30 0
-9 -77 -77 0
-9 -77 -9 0
-9 -77 30 0
-9 9 -77 0
-9 9 -9 0
-9 9 30 0
-9 -30 -77 0
-9 -30 -9 0
-9 -30 30 0
-30 -77 -77 0
-30 -77 -9 0
-30 -77 30 0
-30 9 -77 0
-30 9 -9 0
-30 9 30 0
-30 -30 -77 0
-30 -30 -9 0
-30 -30 30 0
79 -79 -79 0
79 -79 -53 0
79 -79 62 0
79 53 -79 0
79 53 -53 0
79 53 62 0
79 -62 -79 0
79 -62 -53 0
79 -62 62 0
-53 -79 -79 0
-53 -79 -53 0
-53 -79 62 0
-53 53 -79 0
-53 53 -53 0
-53 53 62 0
-53 -62 -79 0
-53 -62 -53 0
-53 -62 62 0
-62 -79 -79 0
-62 -79 -53 0
-62 -79 62 0
-62 53 -79 0
-62 53 -53 0
-62 53 62 0
-62 -62 -79 0
-62 -62 -53 0
-62 -62 62 0
52 -52 -52 0
52 -52 -114 0
52 -52 69 0
52 114 -52 0
52 114 -114 0
52 114 69 0
52 -69 -52 0
52 -69 -114 0
52 -69 69 0
-114 -52 -52 0
-114 -52 -114 0
-114 -52 69 0
-114 114 -52 0
-114 114 -114 0
-114 114 69 0
-114 -69 -52 0
-114 -69 -114 0
-114 -69 69 0
-69 -52 -52 0
-69 -52 -114 0
-69 -52 69 0
-69 114 -52 0
-69 114 -114 0
-69 114 69 0
-69 -69 -52 0
-69 -69 -114 0
-69 -69 69 0
55 -55 -55 0
55 -55 -110 0
55 -55 115 0
55 110 -55 0
55 110 -110 0
55 110 115 0
55 -115 -55 0
55 -115 -110 0
55 -115 115 0
-110 -55 -55 0
-110 -55 -110 0
-110 -55 115 0
-110 110 -55 0
-110 110 -110 0
-110 110 115 0
-110 -115 -55 0
-110 -115 -110 0
-110 -115 115 0
-115 -55 -55 0
-115 -55 -110 0
-115 -55 115 0
-115 110 -55 0
-115 110 -110 0
-115 110 115 0
-115 -115 -55 0
-115 -115 -110 0
-115 -115 115 0
113 -113 -113 0
113 -113 -72 0
113 -113 68 0
113 72 -113 0
113 72 -72 0
113 72 68 0
113 -68 -113 0
113 -68 -72 0
113 -68 68 0
-72 -113 -113 0
-72 -113 -72 0
-72 -113 68 0
-72 72 -113 0
-72 72 -72 0
-72 72 68 0
-72 -68 -113 0
-72 -68 -72 0
-72 -68 68 0
-68 -113 -113 0
-68 -113 -72 0
-68 -113 68 0
-68 72 -113 0
-68 72 -72 0
-68 72 68 0
-68 -68 -113 0
-68 -68 -72 0
-68 -68 68 0
-92 -42 -90 -80 -34 -118 -48 -60 -81 -15 -49 -99 -13 -56 -50 -111 0
-43 -107 -104 -61 -105 -89 -8 -12 -96 -85 -23 -30 -62 -69 -115 -68 0
11 87 58 44 1 35 46 14 101 29 4 25 109 116 38 98 0
37 70 108 63 64 100 93 7 103 5 36 9 79 52 110 72 0
11 87 2 33 94 35 46 54 66 29 4 25 109 116 82 95 0
37 70 45 106 86 100 93 32 97 5 36 9 79 52 55 113 0
11 18 58 44 1 35 46 54 101 29 4 25 21 6 38 98 0
37 83 108 63 64 100 93 32 103 5 36 9 53 114 110 72 0
75 18 58 44 1 35 20 14 101 29 4 25 21 6 38 98 0
28 83 108 63 64 100 27 7 103 5 36 9 53 114 110 72 0
11 87 58 44 1 35 20 14 101 29 4 25 109 116 82 98 0
37 70 108 63 64 100 27 7 103 5 36 9 79 52 55 72 0
11 87 58 44 1 35 46 14 101 29 4 25 109 116 38 98 0
37 70 108 63 64 100 93 7 103 5 36 9 79 52 110 72 0
11 18 58 44 1 35 46 14 101 29 4 25 109 116 38 98 0
37 83 108 63 64 100 93 7 103 5 36 9 79 52 110 72 0
11 87 58 44 1 35 46 14 101 29 4 25 109 116 82 98 0
37 70 108 63 64 100 93 7 103 5 36 9 79 52 55 72 0
11 87 2 44 1 35 46 54 66 29 4 25 109 116 38 98 0
37 70 45 63 64 100 93 32 97 5 36 9 79 52 110 72 0
75 18 58 44 1 35 46 54 66 29 4 25 21 6 38 98 0
28 83 108 63 64 100 93 32 97 5 36 9 53 114 110 72 0
11 87 58 44 1 35 46 14 101 29 4 25 109 116 82 95 0
37 70 108 63 64 100 93 7 103 5 36 9 79 52 55 113 0
11 18 58 44 1 35 46 54 66 29 4 25 109 116 38 98 0
37 83 108 63 64 100 93 32 97 5 36 9 79 52 110 72 0
-11 -39 0
-87 -39 0
-2 -39 0
-33 -39 0
-94 -39 0
-35 -39 0
-46 -39 0
-54 -39 0
-66 -39 0
-16 -39 0
-4 -39 0
-25 -39 0
-109 -39 0
-116 -39 0
-82 -39 0
-95 -39 0
-37 -78 0
-70 -78 0
-45 -78 0
-106 -78 0
-86 -78 0
-100 -78 0
-93 -78 0
-32 -78 0
-97 -78 0
-91 -78 0
-36 -78 0
-9 -78 0
-79 -78 0
-52 -78 0
-55 -78 0
-113 -78 0
-11 -74 0
-87 -74 0
-2 -74 0
-33 -74 0
-94 -74 0
-65 -74 0
-46 -74 0
-54 -74 0
-66 -74 0
-29 -74 0
-4 -74 0
-25 -74 0
-109 -74 0
-116 -74 0
-82 -74 0
-95 -74 0
-37 -102 0
-70 -102 0
-45 -102 0
-106 -102 0
-86 -102 0
-3 -102 0
-93 -102 0
-32 -102 0
-97 -102 0
-5 -102 0
-36 -102 0
-9 -102 0
-79 -102 0
-52 -102 0
-55 -102 0
-113 -102 0
-11 -117 0
-87 -117 0
-2 -117 0
-44 -117 0
-1 -117 0
-35 -117 0
-46 -117 0
-54 -117 0
-66 -117 0
-29 -117 0
-4 -117 0
-25 -117 0
-109 -117 0
-116 -117 0
-82 -117 0
-95 -117 0
-37 -112 0
-70 -112 0
-45 -112 0
-63 -112 0
-64 -112 0
-100 -112 0
-93 -112 0
-32 -112 0
-97 -112 0
-5 -112 0
-36 -112 0
-9 -112 0
-79 -112 0
-52 -112 0
-55 -112 0
-113 -112 0
-11 -31 0
-87 -31 0
-2 -31 0
-33 -31 0
-94 -31 0
-65 -31 0
-46 -31 0
-54 -31 0
-66 -31 0
-29 -31 0
-4 -31 0
-25 -31 0
-109 -31 0
-116 -31 0
-82 -31 0
-95 -31 0
-37 -47 0
-70 -47 0
-45 -47 0
-106 -47 0
-86 -47 0
-3 -47 0
-93 -47 0
-32 -47 0
-97 -47 0
-5 -47 0
-36 -47 0
-9 -47 0
-79 -47 0
-52 -47 0
-55 -47 0
-113 -47 0
-11 -41 0
-87 -41 0
-2 -41 0
-44 -41 0
-1 -41 0
-35 -41 0
-46 -41 0
-54 -41 0
-66 -41 0
-16 -41 0
-17 -41 0
-71 -41 0
-109 -41 0
-116 -41 0
-82 -41 0
-98 -41 0
-37 -73 0
-70 -73 0
-45 -73 0
-63 -73 0
-64 -73 0
-100 -73 0
-93 -73 0
-32 -73 0
-97 -73 0
-91 -73 0
-84 -73 0
-77 -73 0
-79 -73 0
-52 -73 0
-55 -73 0
-72 -73 0
-11 -59 0
-87 -59 0
-2 -59 0
-33 -59 0
-94 -59 0
-65 -59 0
-46 -59 0
-54 -59 0
-66 -59 0
-16 -59 0
-4 -59 0
-25 -59 0
-109 -59 0
-116 -59 0
-82 -59 0
-95 -59 0
-37 -51 0
-70 -51 0
-45 -51 0
-106 -51 0
-86 -51 0
-3 -51 0
-93 -51 0
-32 -51 0
-97 -51 0
-91 -51 0
-36 -51 0
-9 -51 0
-79 -51 0
-52 -51 0
-55 -51 0
-113 -51 0
-11 -19 0
-87 -19 0
-2 -19 0
-33 -19 0
-94 -19 0
-35 -19 0
-46 -19 0
-54 -19 0
-66 -19 0
-16 -19 0
-4 -19 0
-25 -19 0
-109 -19 0
-116 -19 0
-82 -19 0
-95 -19 0
-37 -26 0
-70 -26 0
-45 -26 0
-106 -26 0
-86 -26 0
-100 -26 0
-93 -26 0
-32 -26 0
-97 -26 0
-91 -26 0
-36 -26 0
-9 -26 0
-79 -26 0
-52 -26 0
-55 -26 0
-113 -26 0
-11 -24 0
-87 -24 0
-2 -24 0
-33 -24 0
-94 -24 0
-35 -24 0
-46 -24 0
-54 -24 0
-66 -24 0
-16 -24 0
-17 -24 0
-25 -24 0
-109 -24 0
-116 -24 0
-82 -24 0
-95 -24 0
-37 -57 0
-70 -57 0
-45 -57 0
-106 -57 0
-86 -57 0
-100 -57 0
-93 -57 0
-32 -57 0
-97 -57 0
-91 -57 0
-84 -57 0
-9 -57 0
-79 -57 0
-52 -57 0
-55 -57 0
-113 -57 0
-11 -40 0
-87 -40 0
-2 -40 0
-33 -40 0
-94 -40 0
-65 -40 0
-46 -40 0
-54 -40 0
-66 -40 0
-16 -40 0
-17 -40 0
-71 -40 0
-109 -40 0
-116 -40 0
-82 -40 0
-95 -40 0
-37 -10 0
-70 -10 0
-45 -10 0
-106 -10 0
-86 -10 0
-3 -10 0
-93 -10 0
-32 -10 0
-97 -10 0
-91 -10 0
-84 -10 0
-77 -10 0
-79 -10 0
-52 -10 0
-55 -10 0
-113 -10 0
-11 -76 0
-87 -76 0
-2 -76 0
-33 -76 0
-94 -76 0
-35 -76 0
-46 -76 0
-54 -76 0
-66 -76 0
-16 -76 0
-4 -76 0
-25 -76 0
-109 -76 0
-116 -76 0
-82 -76 0
-95 -76 0
-37 -22 0
-70 -22 0
-45 -22 0
-106 -22 0
-86 -22 0
-100 -22 0
-93 -22 0
-32 -22 0
-97 -22 0
-91 -22 0
-36 -22 0
-9 -22 0
-79 -22 0
-52 -22 0
-55 -22 0
-113 -22 0
-11 -67 0
-87 -67 0
-2 -67 0
-33 -67 0
-1 -67 0
-35 -67 0
-46 -67 0
-54 -67 0
-101 -67 0
-29 -67 0
-4 -67 0
-25 -67 0
-109 -67 0
-116 -67 0
-82 -67 0
-95 -67 0
-37 -88 0
-70 -88 0
-45 -88 0
-106 -88 0
-64 -88 0
-100 -88 0
-93 -88 0
-32 -88 0
-103 -88 0
-5 -88 0
-36 -88 0
-9 -88 0
-79 -88 0
-52 -88 0
-55 -88 0
-113 -88 0
39 78 0
74 102 0
117 112 0
31 47 0
41 73 0
59 51 0
19 26 0
24 57 0
40 10 0
76 22 0
67 88 0
